20	5
0	3	3	1	2
1	0
2	3	8	20	6
3	1	11
4	3	19	9	14
5	3	8	20	7
6	1	17
7	0
8	3	15	13	17
9	2	16	7
10	3	13	15	12
11	1	5
12	1	21
13	1	21
14	1	21
15	1	21
16	1	21
17	1	21
18	1	21
19	1	21
20	1	21
21	0
0	0	0	0	0	0	0
1	6	3	4	5	4	3
2	9	0	2	3	2	2
3	7	0	0	1	0	2
4	8	2	0	5	1	4
5	3	3	0	0	0	4
6	4	5	0	5	0	0
7	4	0	2	0	0	3
8	3	2	4	4	0	0
9	7	0	4	0	4	4
10	8	2	1	1	4	1
11	8	4	1	4	4	5
12	8	2	2	5	2	4
13	5	3	1	1	4	0
14	5	4	4	1	1	3
15	9	2	0	3	4	3
16	9	4	3	5	3	3
17	2	0	0	3	1	5
18	9	2	5	4	2	3
19	5	1	1	3	0	3
20	6	5	0	3	0	5
21	0	0	0	0	0	0
6	7	7	6	6
